!  chemdig rzepa example_inp
 $CONTRL SCFTYP=RHF RUNTYP=OPTIMIZE $END
 $SYSTEM TIMLIM=6000 MEMORY=6553600 $END
 $BASIS GBASIS=MINI $END
 $SCF DIRSCF=.TRUE. $END
 $STATPT OPTTOL=0.0001 NSTEP=20 $END
 $DATA 
chemdig rzepa example_inp
C1
O     8.0    -1.08650     1.38160    -2.56290
N     7.0    -1.90630     0.42200    -1.96080
C     6.0    -2.06570     0.70620    -0.71880
C     6.0    -1.35280     1.95730    -0.26970
C     6.0    -0.49640     1.77600     0.97030
O     8.0     0.43470     0.71460     0.86590
C     6.0     1.63640     1.07060     0.22170
O     8.0     1.47540     1.19320    -1.17120
C     6.0     0.84970     2.40780    -1.57230
C     6.0    -0.66270     2.34710    -1.57560
C     6.0    -2.91530    -0.14950     0.11610
C     6.0    -3.69930     0.39890     1.12940
C     6.0    -4.52410    -0.40540     1.86580
C     6.0    -4.59730    -1.76160     1.62290
C     6.0    -3.80570    -2.30900     0.63420
C     6.0    -2.96770    -1.52260    -0.10730
C     6.0     2.63080    -0.00670     0.52390
C     6.0     3.64300     0.17390     1.41040
F     9.0     3.65070     1.38690     2.00090
C     6.0     4.50500    -0.79440     1.81590
C     6.0     4.38670    -2.01250     1.31880
C     6.0     3.40120    -2.27820     0.42480
C     6.0     2.57300    -1.24860     0.02900
H     1.0    -1.90450     2.66430     0.07310
H     1.0    -1.07590     1.59900     1.71460
H     1.0    -0.01310     2.59050     1.12760
H     1.0     1.92940     1.92680     0.54180
H     1.0     1.12370     3.10360    -0.97060
H     1.0     1.14420     2.61890    -2.46110
H     1.0    -0.92540     3.25330    -1.75260
H     1.0    -3.66040     1.34050     1.31060
H     1.0    -5.06000    -0.02030     2.56290
H     1.0    -5.19140    -2.31610     2.13370
H     1.0    -3.84160    -3.25330     0.46560
H     1.0    -2.41470    -1.91840    -0.78430
H     1.0     5.19130    -0.59720     2.45720
H     1.0     4.99350    -2.70570     1.58830
H     1.0     3.28420    -3.16420     0.07470
H     1.0     1.94310    -1.40000    -0.67910
 $END
