#N RHF/6-31G(3d)  OPT(CALCFC,TS,NOEIGENTEST) NOPOP SCF=DIRECT  NAME=RZEPA

 Chemdig Gaussian Input Molecule   rzepa                                                                   

 0  1
 S 
 O    1     BL11
 H    2     BL12   1       BA12
 O    2     BL13   1       BA13   3       DA13  0
 C    4     BL14   2       BA14   1       DA14  0
 O    5     BL15   4       BA15   2       DA15  0
 H    5     BL16   4       BA16   6       DA16  0
 C    1     BL17   2       BA17   3       DA17  0
 C    1     BL18   2       BA18   8       DA18  0
 S    8     BL19   1       BA19   2       DA19  0
 H    8     BL20   1       BA20  10       DA20  0
 H    8     BL21   1       BA21  11       DA21  0
 C    9     BL22   1       BA22   2       DA22  0
 H    9     BL23   1       BA23  13       DA23  0
 H    9     BL24   1       BA24  14       DA24  0
 C   13     BL25   9       BA25   1       DA25  0
 H   13     BL26   9       BA26  16       DA26  0
 H   13     BL27   9       BA27  17       DA27  0
 H   16     BL28  13       BA28   9       DA28  0
 H   16     BL29  13       BA29  19       DA29  0
  
BL11=   2.00
BL12=   0.9547
BA12=  91.6386
BL13=   1.8718
BA13= 168.7147
DA13= 197.0329
BL14=   1.3318
BA14= 111.6641
DA14= 162.1595
BL15=   1.2188
BA15= 116.5307
DA15=   0.0226
BL16=   1.0950
BA16= 113.4962
DA16= 179.9934
BL17=   1.8123
BA17= 114.4740
DA17= 299.5226
BL18=   1.8244
BA18=  96.2905
DA18= 253.5251
BL19=   1.8082
BA19= 117.6126
DA19= 305.3635
BL20=   1.1069
BA20= 106.8527
DA20= 119.7509
BL21=   1.1053
BA21= 109.1732
DA21= 114.1979
BL22=   1.5174
BA22= 114.6577
DA22=  62.7103
BL23=   1.1060
BA23= 109.7665
DA23= 125.0221
BL24=   1.1071
BA24= 104.9001
DA24= 114.0628
BL25=   1.5179
BA25= 112.7817
DA25=  67.6012
BL26=   1.1092
BA26= 108.7374
DA26= 120.8115
BL27=   1.1103
BA27= 110.1063
DA27= 115.4182
BL28=   1.1060
BA28= 110.3029
DA28=  57.2468
BL29=   1.1069
BA29= 110.1227
DA29= 116.9934

 
